c Arquivo convertido de dwt__869.mtx
p edge 869 3208
e 1 2
e 1 10
e 1 11
e 2 3
e 2 10
e 2 11
e 2 12
e 3 4
e 3 11
e 3 12
e 3 13
e 4 5
e 4 12
e 4 13
e 4 14
e 5 6
e 5 13
e 5 14
e 5 15
e 6 7
e 6 14
e 6 15
e 6 16
e 7 8
e 7 15
e 7 16
e 7 17
e 8 9
e 8 16
e 8 17
e 8 18
e 9 17
e 9 18
e 10 11
e 10 19
e 10 20
e 11 12
e 11 19
e 11 20
e 11 21
e 12 13
e 12 20
e 12 21
e 12 22
e 13 14
e 13 21
e 13 22
e 13 23
e 14 15
e 14 22
e 14 23
e 14 24
e 15 16
e 15 23
e 15 24
e 15 25
e 16 17
e 16 24
e 16 25
e 16 26
e 17 18
e 17 25
e 17 26
e 17 27
e 18 26
e 18 27
e 19 20
e 19 28
e 19 29
e 20 21
e 20 28
e 20 29
e 20 30
e 21 22
e 21 29
e 21 30
e 21 31
e 22 23
e 22 30
e 22 31
e 22 32
e 23 24
e 23 31
e 23 32
e 23 33
e 24 25
e 24 32
e 24 33
e 24 34
e 25 26
e 25 33
e 25 34
e 25 35
e 26 27
e 26 34
e 26 35
e 26 36
e 27 35
e 27 36
e 28 29
e 29 30
e 30 31
e 31 32
e 31 37
e 31 38
e 32 33
e 32 37
e 32 38
e 32 39
e 33 34
e 33 38
e 33 39
e 33 40
e 34 35
e 34 39
e 34 40
e 34 41
e 35 36
e 35 40
e 35 41
e 35 42
e 36 41
e 36 42
e 37 38
e 37 43
e 37 44
e 38 39
e 38 43
e 38 44
e 38 45
e 39 40
e 39 44
e 39 45
e 39 46
e 40 41
e 40 45
e 40 46
e 40 47
e 41 42
e 41 46
e 41 47
e 41 48
e 42 47
e 42 48
e 43 44
e 43 49
e 43 50
e 44 45
e 44 49
e 44 50
e 44 51
e 45 46
e 45 50
e 45 51
e 45 52
e 46 47
e 46 51
e 46 52
e 46 53
e 47 48
e 47 52
e 47 53
e 47 54
e 48 53
e 48 54
e 49 50
e 49 55
e 49 56
e 50 51
e 50 55
e 50 56
e 50 57
e 51 52
e 51 56
e 51 57
e 51 58
e 52 53
e 52 57
e 52 58
e 52 59
e 53 54
e 53 58
e 53 59
e 53 60
e 54 59
e 54 60
e 55 56
e 55 62
e 55 63
e 56 57
e 56 62
e 56 63
e 56 64
e 57 58
e 57 63
e 57 64
e 57 65
e 58 59
e 58 64
e 58 65
e 58 66
e 59 60
e 59 65
e 59 66
e 59 67
e 60 61
e 60 66
e 60 67
e 60 68
e 60 97
e 61 67
e 61 68
e 61 97
e 62 63
e 62 69
e 62 70
e 63 64
e 63 69
e 63 70
e 63 71
e 64 65
e 64 70
e 64 71
e 64 72
e 65 66
e 65 71
e 65 72
e 65 73
e 66 67
e 66 72
e 66 73
e 66 74
e 66 98
e 67 68
e 67 73
e 67 74
e 67 97
e 67 98
e 68 74
e 68 98
e 69 70
e 69 75
e 69 76
e 70 71
e 70 75
e 70 76
e 70 77
e 71 72
e 71 76
e 71 77
e 71 78
e 72 73
e 72 77
e 72 78
e 72 79
e 72 100
e 73 74
e 73 78
e 73 79
e 73 98
e 73 100
e 74 79
e 74 97
e 74 100
e 75 76
e 75 80
e 75 81
e 76 77
e 76 80
e 76 81
e 76 82
e 77 78
e 77 81
e 77 82
e 77 83
e 77 103
e 78 79
e 78 82
e 78 83
e 78 100
e 78 103
e 79 83
e 79 98
e 79 103
e 80 81
e 80 84
e 80 85
e 81 82
e 81 84
e 81 85
e 81 86
e 82 83
e 82 85
e 82 86
e 82 87
e 82 103
e 82 107
e 83 87
e 83 100
e 83 107
e 84 85
e 84 88
e 84 89
e 85 86
e 85 88
e 85 89
e 85 90
e 86 87
e 86 89
e 86 90
e 86 107
e 87 103
e 88 89
e 88 91
e 88 92
e 89 90
e 89 91
e 89 92
e 89 93
e 90 92
e 90 93
e 91 92
e 91 94
e 91 95
e 92 93
e 92 94
e 92 95
e 92 96
e 93 95
e 93 96
e 94 95
e 95 96
e 97 98
e 97 99
e 98 99
e 98 100
e 98 101
e 98 102
e 99 101
e 99 102
e 100 101
e 100 103
e 100 104
e 100 105
e 101 102
e 101 104
e 101 105
e 101 106
e 102 105
e 102 106
e 103 104
e 103 107
e 103 108
e 103 109
e 104 105
e 104 108
e 104 109
e 104 110
e 105 106
e 105 109
e 105 110
e 105 111
e 106 110
e 106 111
e 107 108
e 107 112
e 107 113
e 108 109
e 108 112
e 108 113
e 108 114
e 109 110
e 109 113
e 109 114
e 109 115
e 110 111
e 110 114
e 110 115
e 110 116
e 111 115
e 111 116
e 112 113
e 112 117
e 112 118
e 112 122
e 112 123
e 113 114
e 113 117
e 113 118
e 113 119
e 113 122
e 113 123
e 113 124
e 114 115
e 114 118
e 114 119
e 114 120
e 114 123
e 114 124
e 114 125
e 115 116
e 115 119
e 115 120
e 115 121
e 115 124
e 115 125
e 115 126
e 116 120
e 116 121
e 116 125
e 116 126
e 117 118
e 117 123
e 118 119
e 118 122
e 118 124
e 119 120
e 119 123
e 119 125
e 120 121
e 120 124
e 120 126
e 121 125
e 122 123
e 122 134
e 122 135
e 123 124
e 123 134
e 123 135
e 123 136
e 124 125
e 124 135
e 124 136
e 124 137
e 125 126
e 125 136
e 125 137
e 125 138
e 126 127
e 126 137
e 126 138
e 126 139
e 127 128
e 127 138
e 127 139
e 127 140
e 128 129
e 128 139
e 128 140
e 128 141
e 129 130
e 129 140
e 129 141
e 129 142
e 130 131
e 130 141
e 130 142
e 130 143
e 131 132
e 131 142
e 131 143
e 131 144
e 132 133
e 132 143
e 132 144
e 132 145
e 133 144
e 133 145
e 133 700
e 133 710
e 134 135
e 134 146
e 134 147
e 135 136
e 135 146
e 135 147
e 135 148
e 136 137
e 136 147
e 136 148
e 136 149
e 137 138
e 137 148
e 137 149
e 137 150
e 138 139
e 138 149
e 138 150
e 138 151
e 139 140
e 139 150
e 139 151
e 139 152
e 140 141
e 140 151
e 140 152
e 140 153
e 141 142
e 141 152
e 141 153
e 141 154
e 142 143
e 142 153
e 142 154
e 142 155
e 143 144
e 143 154
e 143 155
e 143 156
e 144 145
e 144 155
e 144 156
e 144 157
e 145 156
e 145 157
e 145 700
e 145 710
e 145 720
e 146 147
e 146 158
e 146 159
e 147 148
e 147 158
e 147 159
e 147 160
e 148 149
e 148 159
e 148 160
e 148 161
e 149 150
e 149 160
e 149 161
e 149 162
e 150 151
e 150 161
e 150 162
e 150 163
e 151 152
e 151 162
e 151 163
e 151 164
e 152 153
e 152 163
e 152 164
e 152 165
e 153 154
e 153 164
e 153 165
e 153 166
e 154 155
e 154 165
e 154 166
e 154 167
e 155 156
e 155 166
e 155 167
e 155 168
e 156 157
e 156 167
e 156 168
e 156 169
e 157 168
e 157 169
e 157 710
e 157 720
e 157 730
e 158 159
e 158 170
e 158 171
e 159 160
e 159 170
e 159 171
e 159 172
e 160 161
e 160 171
e 160 172
e 160 173
e 161 162
e 161 172
e 161 173
e 161 174
e 162 163
e 162 173
e 162 174
e 162 175
e 163 164
e 163 174
e 163 175
e 163 176
e 164 165
e 164 175
e 164 176
e 164 177
e 165 166
e 165 176
e 165 177
e 165 178
e 166 167
e 166 177
e 166 178
e 166 179
e 167 168
e 167 178
e 167 179
e 167 180
e 168 169
e 168 179
e 168 180
e 168 181
e 169 180
e 169 181
e 169 720
e 169 730
e 169 740
e 170 171
e 170 182
e 170 183
e 171 172
e 171 182
e 171 183
e 171 184
e 172 173
e 172 183
e 172 184
e 172 185
e 173 174
e 173 184
e 173 185
e 173 186
e 174 175
e 174 185
e 174 186
e 174 187
e 175 176
e 175 186
e 175 187
e 175 188
e 176 177
e 176 187
e 176 188
e 176 189
e 177 178
e 177 188
e 177 189
e 177 190
e 178 179
e 178 189
e 178 190
e 178 191
e 179 180
e 179 190
e 179 191
e 179 192
e 180 181
e 180 191
e 180 192
e 180 193
e 181 192
e 181 193
e 181 730
e 181 740
e 181 750
e 182 183
e 182 194
e 182 195
e 183 184
e 183 194
e 183 195
e 183 196
e 184 185
e 184 195
e 184 196
e 184 197
e 185 186
e 185 196
e 185 197
e 185 198
e 186 187
e 186 197
e 186 198
e 186 199
e 187 188
e 187 198
e 187 199
e 187 200
e 188 189
e 188 199
e 188 200
e 188 201
e 189 190
e 189 200
e 189 201
e 189 202
e 190 191
e 190 201
e 190 202
e 190 203
e 191 192
e 191 202
e 191 203
e 191 204
e 192 193
e 192 203
e 192 204
e 192 205
e 193 204
e 193 205
e 193 740
e 193 750
e 193 760
e 194 195
e 194 206
e 194 207
e 195 196
e 195 206
e 195 207
e 195 208
e 196 197
e 196 207
e 196 208
e 196 209
e 197 198
e 197 208
e 197 209
e 197 210
e 198 199
e 198 209
e 198 210
e 198 211
e 199 200
e 199 210
e 199 211
e 199 212
e 200 201
e 200 211
e 200 212
e 200 213
e 201 202
e 201 212
e 201 213
e 201 214
e 202 203
e 202 213
e 202 214
e 202 215
e 203 204
e 203 214
e 203 215
e 203 216
e 204 205
e 204 215
e 204 216
e 204 217
e 205 216
e 205 217
e 205 750
e 205 760
e 205 770
e 206 207
e 206 218
e 206 219
e 207 208
e 207 218
e 207 219
e 207 220
e 208 209
e 208 219
e 208 220
e 208 221
e 209 210
e 209 220
e 209 221
e 209 222
e 210 211
e 210 221
e 210 222
e 210 223
e 211 212
e 211 222
e 211 223
e 211 224
e 212 213
e 212 223
e 212 224
e 212 225
e 213 214
e 213 224
e 213 225
e 213 226
e 214 215
e 214 225
e 214 226
e 214 227
e 215 216
e 215 226
e 215 227
e 215 228
e 216 217
e 216 227
e 216 228
e 216 229
e 217 228
e 217 229
e 217 760
e 217 770
e 217 780
e 218 219
e 218 230
e 218 231
e 219 220
e 219 230
e 219 231
e 219 232
e 220 221
e 220 231
e 220 232
e 220 233
e 221 222
e 221 232
e 221 233
e 221 234
e 222 223
e 222 233
e 222 234
e 222 235
e 223 224
e 223 234
e 223 235
e 223 236
e 224 225
e 224 235
e 224 236
e 224 237
e 225 226
e 225 236
e 225 237
e 225 238
e 226 227
e 226 237
e 226 238
e 226 239
e 227 228
e 227 238
e 227 239
e 227 240
e 228 229
e 228 239
e 228 240
e 228 241
e 229 240
e 229 241
e 229 770
e 229 780
e 229 790
e 230 231
e 230 242
e 230 243
e 231 232
e 231 242
e 231 243
e 231 244
e 232 233
e 232 243
e 232 244
e 232 245
e 233 234
e 233 244
e 233 245
e 233 246
e 234 235
e 234 245
e 234 246
e 234 247
e 235 236
e 235 246
e 235 247
e 235 248
e 236 237
e 236 247
e 236 248
e 236 249
e 237 238
e 237 248
e 237 249
e 237 250
e 238 239
e 238 249
e 238 250
e 238 251
e 239 240
e 239 250
e 239 251
e 239 252
e 240 241
e 240 251
e 240 252
e 240 253
e 241 252
e 241 253
e 241 780
e 241 790
e 241 800
e 242 243
e 242 254
e 242 255
e 242 277
e 242 278
e 243 244
e 243 254
e 243 255
e 243 256
e 243 277
e 243 278
e 243 279
e 244 245
e 244 255
e 244 256
e 244 257
e 244 278
e 244 279
e 244 280
e 245 246
e 245 256
e 245 257
e 245 258
e 245 279
e 245 280
e 245 281
e 246 247
e 246 257
e 246 258
e 246 259
e 246 280
e 246 281
e 246 282
e 247 248
e 247 258
e 247 259
e 247 260
e 247 281
e 247 282
e 247 283
e 248 249
e 248 259
e 248 260
e 248 261
e 248 282
e 248 283
e 248 284
e 249 250
e 249 260
e 249 261
e 249 262
e 249 283
e 249 284
e 249 285
e 250 251
e 250 261
e 250 262
e 250 263
e 250 284
e 250 285
e 250 286
e 251 252
e 251 263
e 251 264
e 251 286
e 251 287
e 252 253
e 252 264
e 252 265
e 252 266
e 252 287
e 253 265
e 253 266
e 253 790
e 253 800
e 253 810
e 254 255
e 254 278
e 255 256
e 255 277
e 255 279
e 256 257
e 256 278
e 256 280
e 257 258
e 257 279
e 257 281
e 258 259
e 258 280
e 258 282
e 259 260
e 259 281
e 259 283
e 260 261
e 260 282
e 260 284
e 261 262
e 261 283
e 261 285
e 262 263
e 262 284
e 262 286
e 263 264
e 263 285
e 263 287
e 264 265
e 264 286
e 265 266
e 265 267
e 265 268
e 265 287
e 266 267
e 266 268
e 266 800
e 266 810
e 266 820
e 267 268
e 267 269
e 267 270
e 268 269
e 268 270
e 268 810
e 268 820
e 268 830
e 269 270
e 269 271
e 269 272
e 270 271
e 270 272
e 270 820
e 270 830
e 270 840
e 271 272
e 271 273
e 271 274
e 272 273
e 272 274
e 272 830
e 272 840
e 272 850
e 273 274
e 273 275
e 273 276
e 274 275
e 274 276
e 274 840
e 274 850
e 274 860
e 275 276
e 276 850
e 276 860
e 277 278
e 277 288
e 277 289
e 277 299
e 277 300
e 278 279
e 278 288
e 278 289
e 278 290
e 278 299
e 278 300
e 278 301
e 279 280
e 279 289
e 279 290
e 279 291
e 279 300
e 279 301
e 279 302
e 280 281
e 280 290
e 280 291
e 280 292
e 280 301
e 280 302
e 280 303
e 281 282
e 281 291
e 281 292
e 281 293
e 281 302
e 281 303
e 281 304
e 282 283
e 282 292
e 282 293
e 282 294
e 282 303
e 282 304
e 282 305
e 283 284
e 283 293
e 283 294
e 283 295
e 283 304
e 283 305
e 283 306
e 284 285
e 284 294
e 284 295
e 284 296
e 284 305
e 284 306
e 284 307
e 285 286
e 285 295
e 285 296
e 285 297
e 285 306
e 285 307
e 285 308
e 286 287
e 286 296
e 286 297
e 286 298
e 286 307
e 286 308
e 286 309
e 287 297
e 287 298
e 287 308
e 287 309
e 288 289
e 288 300
e 289 290
e 289 299
e 289 301
e 290 291
e 290 300
e 290 302
e 291 292
e 291 301
e 291 303
e 292 293
e 292 302
e 292 304
e 293 294
e 293 303
e 293 305
e 294 295
e 294 304
e 294 306
e 295 296
e 295 305
e 295 307
e 296 297
e 296 306
e 296 308
e 297 298
e 297 307
e 297 309
e 298 308
e 299 300
e 299 311
e 299 312
e 300 301
e 300 311
e 300 312
e 300 313
e 301 302
e 301 312
e 301 313
e 301 314
e 302 303
e 302 313
e 302 314
e 302 315
e 303 304
e 303 314
e 303 315
e 303 316
e 304 305
e 304 315
e 304 316
e 304 317
e 305 306
e 305 316
e 305 317
e 305 318
e 306 307
e 306 317
e 306 318
e 306 319
e 307 308
e 307 318
e 307 319
e 307 320
e 308 309
e 308 319
e 308 320
e 308 321
e 309 310
e 309 320
e 309 321
e 309 322
e 310 321
e 310 322
e 311 312
e 311 323
e 311 324
e 312 313
e 312 323
e 312 324
e 312 325
e 313 314
e 313 324
e 313 325
e 313 326
e 314 315
e 314 325
e 314 326
e 314 327
e 315 316
e 315 326
e 315 327
e 315 328
e 316 317
e 316 327
e 316 328
e 316 329
e 317 318
e 317 328
e 317 329
e 317 330
e 318 319
e 318 329
e 318 330
e 318 331
e 319 320
e 319 330
e 319 331
e 319 332
e 320 321
e 320 331
e 320 332
e 320 333
e 321 322
e 321 332
e 321 333
e 321 334
e 322 333
e 322 334
e 323 324
e 323 335
e 323 336
e 324 325
e 324 335
e 324 336
e 324 337
e 325 326
e 325 336
e 325 337
e 325 338
e 326 327
e 326 337
e 326 338
e 326 339
e 327 328
e 327 338
e 327 339
e 327 340
e 328 329
e 328 339
e 328 340
e 328 341
e 329 330
e 329 340
e 329 341
e 329 342
e 330 331
e 330 341
e 330 342
e 330 343
e 331 332
e 331 342
e 331 343
e 331 344
e 332 333
e 332 343
e 332 344
e 332 345
e 333 334
e 333 344
e 333 345
e 333 346
e 334 345
e 334 346
e 335 336
e 335 347
e 335 348
e 336 337
e 336 347
e 336 348
e 336 349
e 337 338
e 337 348
e 337 349
e 337 350
e 338 339
e 338 349
e 338 350
e 338 351
e 339 340
e 339 350
e 339 351
e 339 352
e 340 341
e 340 351
e 340 352
e 340 353
e 341 342
e 341 352
e 341 353
e 341 354
e 342 343
e 342 353
e 342 354
e 342 355
e 343 344
e 343 354
e 343 355
e 343 356
e 344 345
e 344 355
e 344 356
e 344 357
e 345 346
e 345 356
e 345 357
e 345 358
e 346 357
e 346 358
e 347 348
e 347 359
e 347 360
e 348 349
e 348 359
e 348 360
e 348 361
e 349 350
e 349 360
e 349 361
e 349 362
e 350 351
e 350 361
e 350 362
e 350 363
e 351 352
e 351 362
e 351 363
e 351 364
e 352 353
e 352 363
e 352 364
e 352 365
e 353 354
e 353 364
e 353 365
e 353 366
e 354 355
e 354 365
e 354 366
e 354 367
e 355 356
e 355 366
e 355 367
e 355 368
e 356 357
e 356 367
e 356 368
e 356 369
e 357 358
e 357 368
e 357 369
e 357 370
e 358 369
e 358 370
e 359 360
e 359 371
e 359 372
e 360 361
e 360 371
e 360 372
e 360 373
e 361 362
e 361 372
e 361 373
e 361 374
e 362 363
e 362 373
e 362 374
e 362 375
e 363 364
e 363 374
e 363 375
e 363 376
e 364 365
e 364 375
e 364 376
e 364 377
e 365 366
e 365 376
e 365 377
e 365 378
e 366 367
e 366 377
e 366 378
e 366 379
e 367 368
e 367 378
e 367 379
e 367 380
e 368 369
e 368 379
e 368 380
e 368 381
e 369 370
e 369 380
e 369 381
e 369 382
e 370 381
e 370 382
e 371 372
e 371 383
e 371 384
e 372 373
e 372 383
e 372 384
e 372 385
e 373 374
e 373 384
e 373 385
e 373 386
e 374 375
e 374 385
e 374 386
e 374 387
e 375 376
e 375 386
e 375 387
e 375 388
e 376 377
e 376 387
e 376 388
e 376 389
e 377 378
e 377 388
e 377 389
e 377 390
e 378 379
e 378 389
e 378 390
e 378 391
e 379 380
e 379 390
e 379 391
e 379 392
e 380 381
e 380 391
e 380 392
e 380 393
e 380 445
e 381 382
e 381 392
e 381 393
e 381 445
e 382 393
e 382 445
e 383 384
e 383 394
e 383 395
e 384 385
e 384 394
e 384 395
e 384 396
e 385 386
e 385 395
e 385 396
e 385 397
e 386 387
e 386 396
e 386 397
e 386 398
e 387 388
e 387 397
e 387 398
e 387 399
e 388 389
e 388 398
e 388 399
e 388 400
e 389 390
e 389 399
e 389 400
e 389 401
e 390 391
e 390 400
e 390 401
e 390 402
e 391 392
e 391 401
e 391 402
e 391 403
e 391 448
e 392 393
e 392 402
e 392 403
e 392 445
e 392 448
e 393 403
e 393 448
e 394 395
e 394 404
e 394 405
e 395 396
e 395 404
e 395 405
e 395 406
e 396 397
e 396 405
e 396 406
e 396 407
e 397 398
e 397 406
e 397 407
e 397 408
e 398 399
e 398 407
e 398 408
e 398 409
e 399 400
e 399 408
e 399 409
e 399 410
e 400 401
e 400 409
e 400 410
e 400 411
e 401 402
e 401 410
e 401 411
e 401 412
e 401 452
e 402 403
e 402 411
e 402 412
e 402 448
e 402 452
e 403 412
e 403 445
e 403 452
e 404 405
e 404 413
e 404 414
e 405 406
e 405 413
e 405 414
e 405 415
e 406 407
e 406 414
e 406 415
e 406 416
e 407 408
e 407 415
e 407 416
e 407 417
e 408 409
e 408 416
e 408 417
e 408 418
e 409 410
e 409 417
e 409 418
e 409 419
e 410 411
e 410 418
e 410 419
e 410 420
e 410 457
e 411 412
e 411 419
e 411 420
e 411 452
e 411 457
e 412 420
e 412 448
e 412 457
e 413 414
e 413 421
e 413 422
e 414 415
e 414 421
e 414 422
e 414 423
e 415 416
e 415 422
e 415 423
e 415 424
e 416 417
e 416 423
e 416 424
e 416 425
e 417 418
e 417 424
e 417 425
e 417 426
e 418 419
e 418 425
e 418 426
e 418 427
e 418 463
e 419 420
e 419 426
e 419 427
e 419 457
e 419 463
e 420 427
e 420 452
e 420 463
e 421 422
e 421 428
e 421 429
e 422 423
e 422 428
e 422 429
e 422 430
e 423 424
e 423 429
e 423 430
e 423 431
e 424 425
e 424 430
e 424 431
e 424 432
e 425 426
e 425 431
e 425 432
e 425 433
e 425 470
e 426 427
e 426 432
e 426 433
e 426 463
e 426 470
e 427 433
e 427 457
e 427 470
e 428 429
e 428 434
e 428 435
e 429 430
e 429 434
e 429 435
e 429 436
e 430 431
e 430 435
e 430 436
e 430 437
e 431 432
e 431 436
e 431 437
e 431 438
e 431 479
e 432 433
e 432 437
e 432 438
e 432 470
e 432 479
e 433 438
e 433 463
e 433 479
e 434 435
e 434 439
e 434 440
e 435 436
e 435 439
e 435 440
e 436 437
e 436 440
e 436 441
e 436 442
e 436 478
e 436 489
e 437 438
e 437 441
e 437 478
e 437 479
e 438 441
e 438 470
e 438 478
e 439 440
e 439 443
e 439 444
e 439 488
e 440 442
e 440 443
e 440 488
e 440 489
e 441 442
e 441 479
e 441 489
e 442 443
e 442 478
e 442 488
e 443 444
e 443 489
e 444 488
e 445 446
e 445 448
e 445 449
e 445 450
e 446 447
e 446 449
e 446 450
e 446 451
e 447 450
e 447 451
e 448 449
e 448 452
e 448 453
e 448 454
e 449 450
e 449 453
e 449 454
e 449 455
e 450 451
e 450 454
e 450 455
e 450 456
e 451 455
e 451 456
e 452 453
e 452 457
e 452 458
e 452 459
e 453 454
e 453 458
e 453 459
e 453 460
e 454 455
e 454 459
e 454 460
e 454 461
e 455 456
e 455 460
e 455 461
e 455 462
e 456 461
e 456 462
e 457 458
e 457 463
e 457 464
e 457 465
e 458 459
e 458 464
e 458 465
e 458 466
e 459 460
e 459 465
e 459 466
e 459 467
e 460 461
e 460 466
e 460 467
e 460 468
e 461 462
e 461 467
e 461 468
e 461 469
e 462 468
e 462 469
e 463 464
e 463 470
e 463 471
e 463 472
e 464 465
e 464 471
e 464 472
e 464 473
e 465 466
e 465 472
e 465 473
e 465 474
e 466 467
e 466 473
e 466 474
e 466 475
e 467 468
e 467 474
e 467 475
e 467 476
e 468 469
e 468 475
e 468 476
e 468 477
e 469 476
e 469 477
e 470 471
e 470 479
e 470 480
e 471 472
e 471 480
e 471 481
e 471 482
e 472 473
e 472 481
e 472 482
e 472 483
e 473 474
e 473 482
e 473 483
e 473 484
e 474 475
e 474 483
e 474 484
e 474 485
e 475 476
e 475 484
e 475 485
e 475 486
e 476 477
e 476 485
e 476 486
e 476 487
e 477 486
e 477 487
e 478 479
e 478 489
e 478 490
e 478 501
e 479 480
e 479 490
e 480 481
e 480 490
e 480 491
e 480 492
e 481 482
e 481 491
e 481 492
e 481 493
e 482 483
e 482 492
e 482 493
e 482 494
e 483 484
e 483 493
e 483 494
e 483 495
e 484 485
e 484 494
e 484 495
e 484 496
e 485 486
e 485 495
e 485 496
e 485 497
e 486 487
e 486 496
e 486 497
e 486 498
e 487 497
e 487 498
e 488 489
e 488 499
e 488 500
e 489 500
e 489 501
e 490 491
e 490 501
e 490 502
e 490 503
e 491 492
e 491 502
e 491 503
e 491 504
e 492 493
e 492 503
e 492 504
e 492 505
e 493 494
e 493 504
e 493 505
e 493 506
e 494 495
e 494 505
e 494 506
e 494 507
e 495 496
e 495 506
e 495 507
e 495 508
e 496 497
e 496 507
e 496 508
e 496 509
e 497 498
e 497 508
e 497 509
e 497 510
e 498 509
e 498 510
e 499 500
e 499 511
e 499 512
e 500 501
e 500 511
e 500 512
e 500 513
e 501 502
e 501 512
e 501 513
e 501 514
e 502 503
e 502 513
e 502 514
e 502 515
e 503 504
e 503 514
e 503 515
e 503 516
e 504 505
e 504 515
e 504 516
e 504 517
e 505 506
e 505 516
e 505 517
e 505 518
e 506 507
e 506 517
e 506 518
e 506 519
e 507 508
e 507 518
e 507 519
e 507 520
e 508 509
e 508 519
e 508 520
e 508 521
e 509 510
e 509 520
e 509 521
e 509 522
e 510 521
e 510 522
e 511 512
e 511 523
e 511 524
e 512 513
e 512 523
e 512 524
e 512 525
e 513 514
e 513 524
e 513 525
e 513 526
e 514 515
e 514 525
e 514 526
e 514 527
e 515 516
e 515 526
e 515 527
e 515 528
e 516 517
e 516 527
e 516 528
e 516 529
e 517 518
e 517 528
e 517 529
e 517 530
e 518 519
e 518 529
e 518 530
e 518 531
e 519 520
e 519 530
e 519 531
e 519 532
e 520 521
e 520 531
e 520 532
e 520 533
e 521 522
e 521 532
e 521 533
e 521 534
e 522 533
e 522 534
e 523 524
e 523 535
e 523 536
e 524 525
e 524 535
e 524 536
e 524 537
e 525 526
e 525 536
e 525 537
e 525 538
e 526 527
e 526 537
e 526 538
e 526 539
e 527 528
e 527 538
e 527 539
e 527 540
e 528 529
e 528 539
e 528 540
e 528 541
e 529 530
e 529 540
e 529 541
e 529 542
e 530 531
e 530 541
e 530 542
e 530 543
e 531 532
e 531 542
e 531 543
e 531 544
e 532 533
e 532 543
e 532 544
e 532 545
e 533 534
e 533 544
e 533 545
e 533 546
e 534 545
e 534 546
e 535 536
e 535 547
e 536 537
e 536 547
e 536 548
e 536 582
e 537 538
e 537 548
e 537 549
e 537 582
e 537 583
e 538 539
e 538 548
e 538 549
e 538 550
e 538 582
e 538 583
e 538 584
e 539 540
e 539 549
e 539 550
e 539 551
e 539 583
e 539 584
e 539 585
e 540 541
e 540 550
e 540 551
e 540 552
e 540 584
e 540 585
e 540 586
e 541 542
e 541 551
e 541 552
e 541 553
e 541 585
e 541 586
e 541 587
e 542 543
e 542 552
e 542 553
e 542 554
e 542 586
e 542 587
e 542 588
e 543 544
e 543 553
e 543 554
e 543 555
e 543 587
e 543 588
e 543 589
e 544 545
e 544 554
e 544 555
e 544 556
e 544 588
e 544 589
e 544 590
e 545 546
e 545 555
e 545 556
e 545 557
e 545 589
e 545 590
e 545 591
e 546 556
e 546 557
e 546 590
e 546 591
e 547 548
e 547 558
e 547 559
e 547 582
e 548 549
e 548 558
e 548 559
e 548 583
e 549 550
e 549 582
e 549 584
e 550 551
e 550 583
e 550 585
e 551 552
e 551 584
e 551 586
e 552 553
e 552 585
e 552 587
e 553 554
e 553 586
e 553 588
e 554 555
e 554 587
e 554 589
e 555 556
e 555 588
e 555 590
e 556 557
e 556 589
e 556 591
e 557 590
e 558 559
e 558 560
e 558 561
e 558 582
e 559 560
e 559 561
e 559 582
e 560 561
e 560 562
e 560 563
e 561 562
e 561 563
e 562 563
e 562 564
e 562 565
e 563 564
e 563 565
e 564 565
e 564 566
e 564 567
e 565 566
e 565 567
e 566 567
e 566 568
e 566 569
e 567 568
e 567 569
e 568 569
e 568 570
e 568 571
e 569 570
e 569 571
e 570 571
e 570 572
e 570 573
e 571 572
e 571 573
e 572 573
e 572 574
e 572 575
e 573 574
e 573 575
e 574 575
e 574 576
e 574 577
e 575 576
e 575 577
e 576 577
e 576 578
e 576 579
e 577 578
e 577 579
e 578 579
e 578 580
e 578 581
e 579 580
e 579 581
e 580 581
e 582 583
e 582 592
e 582 593
e 583 584
e 583 592
e 583 593
e 583 594
e 584 585
e 584 593
e 584 594
e 584 595
e 585 586
e 585 594
e 585 595
e 585 596
e 586 587
e 586 595
e 586 596
e 586 597
e 587 588
e 587 596
e 587 597
e 587 598
e 588 589
e 588 597
e 588 598
e 589 590
e 589 598
e 589 599
e 590 591
e 590 598
e 590 599
e 590 600
e 591 599
e 591 600
e 592 593
e 592 601
e 592 602
e 593 594
e 593 601
e 593 602
e 593 603
e 594 595
e 594 602
e 594 603
e 594 604
e 595 596
e 595 603
e 595 604
e 595 605
e 596 597
e 596 604
e 596 605
e 596 606
e 597 598
e 597 605
e 597 606
e 597 607
e 598 599
e 598 606
e 598 607
e 598 608
e 599 600
e 599 607
e 599 608
e 599 609
e 600 608
e 600 609
e 601 602
e 601 610
e 601 611
e 602 603
e 602 610
e 602 611
e 602 612
e 603 604
e 603 611
e 603 612
e 603 613
e 604 605
e 604 612
e 604 613
e 604 614
e 605 606
e 605 613
e 605 614
e 605 615
e 606 607
e 606 614
e 606 615
e 606 616
e 607 608
e 607 615
e 607 616
e 607 617
e 608 609
e 608 616
e 608 617
e 608 618
e 609 617
e 609 618
e 610 611
e 610 619
e 610 620
e 611 612
e 611 619
e 611 620
e 611 621
e 612 613
e 612 620
e 612 621
e 612 622
e 613 614
e 613 621
e 613 622
e 613 623
e 614 615
e 614 622
e 614 623
e 614 624
e 615 616
e 615 623
e 615 624
e 615 625
e 616 617
e 616 624
e 616 625
e 616 626
e 617 618
e 617 625
e 617 626
e 617 627
e 618 626
e 618 627
e 619 620
e 619 628
e 619 629
e 620 621
e 620 628
e 620 629
e 620 630
e 621 622
e 621 629
e 621 630
e 621 631
e 622 623
e 622 630
e 622 631
e 622 632
e 623 624
e 623 631
e 623 632
e 623 633
e 624 625
e 624 632
e 624 633
e 624 634
e 625 626
e 625 633
e 625 634
e 625 635
e 626 627
e 626 634
e 626 635
e 626 636
e 627 635
e 627 636
e 628 629
e 628 637
e 628 638
e 629 630
e 629 637
e 629 638
e 629 639
e 630 631
e 630 638
e 630 639
e 630 640
e 631 632
e 631 639
e 631 640
e 631 641
e 632 633
e 632 640
e 632 641
e 632 642
e 633 634
e 633 641
e 633 642
e 633 643
e 634 635
e 634 642
e 634 643
e 634 644
e 635 636
e 635 643
e 635 644
e 635 645
e 636 644
e 636 645
e 637 638
e 637 646
e 637 647
e 638 639
e 638 646
e 638 647
e 638 648
e 639 640
e 639 647
e 639 648
e 639 649
e 640 641
e 640 648
e 640 649
e 640 650
e 641 642
e 641 649
e 641 650
e 641 651
e 642 643
e 642 650
e 642 651
e 642 652
e 643 644
e 643 651
e 643 652
e 643 653
e 644 645
e 644 652
e 644 653
e 644 654
e 645 653
e 645 654
e 646 647
e 646 655
e 646 656
e 647 648
e 647 655
e 647 656
e 647 657
e 648 649
e 648 656
e 648 657
e 648 658
e 649 650
e 649 657
e 649 658
e 649 659
e 650 651
e 650 658
e 650 659
e 650 660
e 651 652
e 651 659
e 651 660
e 651 661
e 652 653
e 652 660
e 652 661
e 652 662
e 653 654
e 653 661
e 653 662
e 653 663
e 654 662
e 654 663
e 655 656
e 655 664
e 655 665
e 656 657
e 656 664
e 656 665
e 656 666
e 657 658
e 657 665
e 657 666
e 657 667
e 658 659
e 658 666
e 658 667
e 658 668
e 659 660
e 659 667
e 659 668
e 659 669
e 660 661
e 660 668
e 660 669
e 660 670
e 661 662
e 661 669
e 661 670
e 661 671
e 662 663
e 662 670
e 662 671
e 662 672
e 663 671
e 663 672
e 664 665
e 664 673
e 664 674
e 665 666
e 665 673
e 665 674
e 665 675
e 666 667
e 666 674
e 666 675
e 666 676
e 667 668
e 667 675
e 667 676
e 667 677
e 668 669
e 668 676
e 668 677
e 668 678
e 669 670
e 669 677
e 669 678
e 669 679
e 670 671
e 670 678
e 670 679
e 670 680
e 671 672
e 671 679
e 671 680
e 671 681
e 672 680
e 672 681
e 673 674
e 673 682
e 673 683
e 674 675
e 674 682
e 674 683
e 674 684
e 675 676
e 675 683
e 675 684
e 675 685
e 676 677
e 676 684
e 676 685
e 676 686
e 677 678
e 677 685
e 677 686
e 677 687
e 678 679
e 678 686
e 678 687
e 678 688
e 679 680
e 679 687
e 679 688
e 679 689
e 680 681
e 680 688
e 680 689
e 680 690
e 681 689
e 681 690
e 682 683
e 682 691
e 682 692
e 683 684
e 683 691
e 683 692
e 683 693
e 684 685
e 684 692
e 684 693
e 684 694
e 685 686
e 685 693
e 685 694
e 685 695
e 686 687
e 686 694
e 686 695
e 686 696
e 687 688
e 687 695
e 687 696
e 687 697
e 688 689
e 688 696
e 688 697
e 688 698
e 689 690
e 689 697
e 689 698
e 689 699
e 690 698
e 690 699
e 691 692
e 692 693
e 693 694
e 694 695
e 695 696
e 696 697
e 697 698
e 698 699
e 700 701
e 700 710
e 700 711
e 701 702
e 701 710
e 701 711
e 701 712
e 702 703
e 702 711
e 702 712
e 702 713
e 703 704
e 703 712
e 703 713
e 703 714
e 704 705
e 704 713
e 704 714
e 704 715
e 705 706
e 705 714
e 705 715
e 705 716
e 706 707
e 706 715
e 706 716
e 706 717
e 707 708
e 707 716
e 707 717
e 707 718
e 708 709
e 708 717
e 708 718
e 708 719
e 709 718
e 709 719
e 710 711
e 710 720
e 710 721
e 711 712
e 711 720
e 711 721
e 711 722
e 712 713
e 712 721
e 712 722
e 712 723
e 713 714
e 713 722
e 713 723
e 713 724
e 714 715
e 714 723
e 714 724
e 714 725
e 715 716
e 715 724
e 715 725
e 715 726
e 716 717
e 716 725
e 716 726
e 716 727
e 717 718
e 717 726
e 717 727
e 717 728
e 718 719
e 718 727
e 718 728
e 718 729
e 719 728
e 719 729
e 720 721
e 720 730
e 720 731
e 721 722
e 721 730
e 721 731
e 721 732
e 722 723
e 722 731
e 722 732
e 722 733
e 723 724
e 723 732
e 723 733
e 723 734
e 724 725
e 724 733
e 724 734
e 724 735
e 725 726
e 725 734
e 725 735
e 725 736
e 726 727
e 726 735
e 726 736
e 726 737
e 727 728
e 727 736
e 727 737
e 727 738
e 728 729
e 728 737
e 728 738
e 728 739
e 729 738
e 729 739
e 730 731
e 730 740
e 730 741
e 731 732
e 731 740
e 731 741
e 731 742
e 732 733
e 732 741
e 732 742
e 732 743
e 733 734
e 733 742
e 733 743
e 733 744
e 734 735
e 734 743
e 734 744
e 734 745
e 735 736
e 735 744
e 735 745
e 735 746
e 736 737
e 736 745
e 736 746
e 736 747
e 737 738
e 737 746
e 737 747
e 737 748
e 738 739
e 738 747
e 738 748
e 738 749
e 739 748
e 739 749
e 740 741
e 740 750
e 740 751
e 741 742
e 741 750
e 741 751
e 741 752
e 742 743
e 742 751
e 742 752
e 742 753
e 743 744
e 743 752
e 743 753
e 743 754
e 744 745
e 744 753
e 744 754
e 744 755
e 745 746
e 745 754
e 745 755
e 745 756
e 746 747
e 746 755
e 746 756
e 746 757
e 747 748
e 747 756
e 747 757
e 747 758
e 748 749
e 748 757
e 748 758
e 748 759
e 749 758
e 749 759
e 750 751
e 750 760
e 750 761
e 751 752
e 751 760
e 751 761
e 751 762
e 752 753
e 752 761
e 752 762
e 752 763
e 753 754
e 753 762
e 753 763
e 753 764
e 754 755
e 754 763
e 754 764
e 754 765
e 755 756
e 755 764
e 755 765
e 755 766
e 756 757
e 756 765
e 756 766
e 756 767
e 757 758
e 757 766
e 757 767
e 757 768
e 758 759
e 758 767
e 758 768
e 758 769
e 759 768
e 759 769
e 760 761
e 760 770
e 760 771
e 761 762
e 761 770
e 761 771
e 761 772
e 762 763
e 762 771
e 762 772
e 762 773
e 763 764
e 763 772
e 763 773
e 763 774
e 764 765
e 764 773
e 764 774
e 764 775
e 765 766
e 765 774
e 765 775
e 765 776
e 766 767
e 766 775
e 766 776
e 766 777
e 767 768
e 767 776
e 767 777
e 767 778
e 768 769
e 768 777
e 768 778
e 768 779
e 769 778
e 769 779
e 770 771
e 770 780
e 770 781
e 771 772
e 771 780
e 771 781
e 771 782
e 772 773
e 772 781
e 772 782
e 772 783
e 773 774
e 773 782
e 773 783
e 773 784
e 774 775
e 774 783
e 774 784
e 774 785
e 775 776
e 775 784
e 775 785
e 775 786
e 776 777
e 776 785
e 776 786
e 776 787
e 777 778
e 777 786
e 777 787
e 777 788
e 778 779
e 778 787
e 778 788
e 778 789
e 779 788
e 779 789
e 780 781
e 780 790
e 780 791
e 781 782
e 781 790
e 781 791
e 781 792
e 782 783
e 782 791
e 782 792
e 782 793
e 783 784
e 783 792
e 783 793
e 783 794
e 784 785
e 784 793
e 784 794
e 784 795
e 785 786
e 785 794
e 785 795
e 785 796
e 786 787
e 786 795
e 786 796
e 786 797
e 787 788
e 787 796
e 787 797
e 787 798
e 788 789
e 788 797
e 788 798
e 788 799
e 789 798
e 789 799
e 790 791
e 790 800
e 790 801
e 791 792
e 791 800
e 791 801
e 791 802
e 792 793
e 792 801
e 792 802
e 792 803
e 793 794
e 793 802
e 793 803
e 793 804
e 794 795
e 794 803
e 794 804
e 794 805
e 795 796
e 795 804
e 795 805
e 795 806
e 796 797
e 796 805
e 796 806
e 796 807
e 797 798
e 797 806
e 797 807
e 797 808
e 798 799
e 798 807
e 798 808
e 798 809
e 799 808
e 799 809
e 800 801
e 800 810
e 800 811
e 801 802
e 801 810
e 801 811
e 801 812
e 802 803
e 802 811
e 802 812
e 802 813
e 803 804
e 803 812
e 803 813
e 803 814
e 804 805
e 804 813
e 804 814
e 804 815
e 805 806
e 805 814
e 805 815
e 805 816
e 806 807
e 806 815
e 806 816
e 806 817
e 807 808
e 807 816
e 807 817
e 807 818
e 808 809
e 808 817
e 808 818
e 808 819
e 809 818
e 809 819
e 810 811
e 810 820
e 810 821
e 811 812
e 811 820
e 811 821
e 811 822
e 812 813
e 812 821
e 812 822
e 812 823
e 813 814
e 813 822
e 813 823
e 813 824
e 814 815
e 814 823
e 814 824
e 814 825
e 815 816
e 815 824
e 815 825
e 815 826
e 816 817
e 816 825
e 816 826
e 816 827
e 817 818
e 817 826
e 817 827
e 817 828
e 818 819
e 818 827
e 818 828
e 818 829
e 819 828
e 819 829
e 820 821
e 820 830
e 820 831
e 821 822
e 821 830
e 821 831
e 821 832
e 822 823
e 822 831
e 822 832
e 822 833
e 823 824
e 823 832
e 823 833
e 823 834
e 824 825
e 824 833
e 824 834
e 824 835
e 825 826
e 825 834
e 825 835
e 825 836
e 826 827
e 826 835
e 826 836
e 826 837
e 827 828
e 827 836
e 827 837
e 827 838
e 828 829
e 828 837
e 828 838
e 828 839
e 829 838
e 829 839
e 830 831
e 830 840
e 830 841
e 831 832
e 831 840
e 831 841
e 831 842
e 832 833
e 832 841
e 832 842
e 832 843
e 833 834
e 833 842
e 833 843
e 833 844
e 834 835
e 834 843
e 834 844
e 834 845
e 835 836
e 835 844
e 835 845
e 835 846
e 836 837
e 836 845
e 836 846
e 836 847
e 837 838
e 837 846
e 837 847
e 837 848
e 838 839
e 838 847
e 838 848
e 838 849
e 839 848
e 839 849
e 840 841
e 840 850
e 840 851
e 841 842
e 841 850
e 841 851
e 841 852
e 842 843
e 842 851
e 842 852
e 842 853
e 843 844
e 843 852
e 843 853
e 843 854
e 844 845
e 844 853
e 844 854
e 844 855
e 845 846
e 845 854
e 845 855
e 845 856
e 846 847
e 846 855
e 846 856
e 846 857
e 847 848
e 847 856
e 847 857
e 847 858
e 848 849
e 848 857
e 848 858
e 848 859
e 849 858
e 849 859
e 850 851
e 850 860
e 850 861
e 851 852
e 851 860
e 851 861
e 851 862
e 852 853
e 852 861
e 852 862
e 852 863
e 853 854
e 853 862
e 853 863
e 853 864
e 854 855
e 854 863
e 854 864
e 854 865
e 855 856
e 855 864
e 855 865
e 855 866
e 856 857
e 856 865
e 856 866
e 856 867
e 857 858
e 857 866
e 857 867
e 857 868
e 858 859
e 858 867
e 858 868
e 858 869
e 859 868
e 859 869
e 860 861
e 861 862
e 862 863
e 863 864
e 864 865
e 865 866
e 866 867
e 867 868
e 868 869
